(declare-const c_0 Real)
(declare-const c_1 Real)
(declare-const c_2 Real)
(declare-const c_3 Real)
(declare-const c_4 Real)
(declare-const c_5 Real)
(declare-const c_6 Real)
(declare-const c_7 Real)
(declare-const c_8 Real)
(declare-const c_9 Real)
(declare-const c_10 Real)
(declare-const c_11 Real)
(declare-const c_12 Real)
(declare-const c_13 Real)
(declare-const c_14 Real)
(declare-const c_15 Real)
(declare-const c_16 Real)
(declare-const c_17 Real)
(declare-const c_18 Real)
(declare-const c_19 Real)
(declare-const c_20 Real)
(declare-const c_21 Real)
(declare-const c_22 Real)
(declare-const c_23 Real)
(declare-const c_24 Real)
(declare-const c_25 Real)
(declare-const c_26 Real)
(declare-const c_27 Real)
(declare-const c_28 Real)
(declare-const c_29 Real)
(declare-const c_30 Real)
(declare-const c_31 Real)
(declare-const c_32 Real)
(declare-const c_33 Real)
(declare-const c_34 Real)
(declare-const c_35 Real)
(declare-const c_36 Real)
(declare-const c_37 Real)
(declare-const c_38 Real)
(declare-const c_39 Real)
(declare-const c_40 Real)
(declare-const c_41 Real)
(declare-const c_42 Real)
(declare-const c_43 Real)
(declare-const c_44 Real)
(declare-const c_45 Real)
(declare-const c_46 Real)
(declare-const c_47 Real)
(declare-const c_48 Real)
(declare-const c_49 Real)
(declare-const c_50 Real)
(declare-const c_51 Real)
(declare-const c_52 Real)
(declare-const c_53 Real)
(declare-const c_54 Real)
(declare-const c_55 Real)
(declare-const c_56 Real)
(declare-const c_57 Real)
(declare-const c_58 Real)
(declare-const c_59 Real)
(declare-const c_60 Real)
(declare-const c_61 Real)
(declare-const c_62 Real)
(declare-const c_63 Real)
(declare-const c_64 Real)
(declare-const c_65 Real)
(declare-const c_66 Real)
(declare-const c_67 Real)
(declare-const c_68 Real)
(declare-const c_69 Real)
(declare-const c_70 Real)
(declare-const c_71 Real)
(declare-const c_72 Real)
(declare-const c_73 Real)
(declare-const c_74 Real)
(declare-const c_75 Real)
(declare-const c_76 Real)
(declare-const c_77 Real)
(declare-const c_78 Real)
(declare-const c_79 Real)
(assert (forall ((r Real) (cost Real) (x Real) ) (=> (and (>= (+ (* 1 cost ) (* (- 1) r ) ) 0) (>= (* 1 r ) 0) (>= (+ (* 1 1) (* (- 1) r ) ) 0) (>= (+ (* 1 cost ) (* (- 1) x ) ) 0) (>= (+ (* 1 cost ) (* 1 x ) ) 0) (>= (+ (* 5 1) (* 1 r ) (* (- 1) x ) ) 0) (>= (+ (* 5 1) (* 1 r ) (* 1 x ) ) 0) (>= (* (- 1) x ) 0) (>= (* 1 x ) 0) (>= (* (- 1) r ) 0) (>= (* (- 1) cost ) 0) (>= (* 1 cost ) 0) ) (>= (+ (* 1 c_0 ) (* 1 c_1 cost ) (* 1 c_2 cost r ) (* 1 c_3 cost x ) (* 1 c_4 cost cost ) (* 1 c_5 r ) (* 1 c_6 r x ) (* 1 c_7 r r ) (* 1 c_8 x ) (* 1 c_9 x x ) ) 0) )))
(assert (forall ((r Real) (cost Real) (x Real) ) (=> (and (>= (+ (* 5 1) (* 1 x ) ) 0) (>= (+ (* 5 1) (* (- 1) x ) ) 0) (>= (+ (* 1 cost ) (* (- 1) r ) ) 0) (>= (* 1 r ) 0) (>= (+ (* 1 1) (* (- 1) r ) ) 0) (>= (+ (* 1 cost ) (* (- 1) x ) ) 0) (>= (+ (* 1 cost ) (* 1 x ) ) 0) (>= (+ (* 5 1) (* 1 r ) (* (- 1) x ) ) 0) (>= (+ (* 5 1) (* 1 r ) (* 1 x ) ) 0) ) (>= (+ (* (- 1) 1) (* 1 c_0 ) (* 1 c_1 cost ) (* (- 1) c_10 ) (* (- 1) c_11 cost ) (* (- 1) c_12 cost r ) (* (- 1) c_13 cost x ) (* (- 1) c_14 cost cost ) (* (- 1) c_15 r ) (* (- 1) c_16 r x ) (* (- 1) c_17 r r ) (* (- 1) c_18 x ) (* (- 1) c_19 x x ) (* 1 c_2 cost r ) (* 1 c_3 cost x ) (* 1 c_4 cost cost ) (* 1 c_5 r ) (* 1 c_6 r x ) (* 1 c_7 r r ) (* 1 c_8 x ) (* 1 c_9 x x ) ) 0) )))
(assert (forall ((r Real) (cost Real) (x Real) ) (=> (and (>= (+ (* 5 1) (* 1 x ) ) 0) (>= (+ (* 5 1) (* (- 1) x ) ) 0) (>= (+ (* 1 cost ) (* (- 1) r ) ) 0) (>= (* 1 r ) 0) (>= (+ (* 1 1) (* (- 1) r ) ) 0) (>= (+ (* 1 cost ) (* (- 1) x ) ) 0) (>= (+ (* 1 cost ) (* 1 x ) ) 0) (>= (+ (* 5 1) (* 1 r ) (* (- 1) x ) ) 0) (>= (+ (* 5 1) (* 1 r ) (* 1 x ) ) 0) ) (>= (+ (* 1 c_10 ) (* 1 c_11 cost ) (* 1 c_12 cost r ) (* 1 c_13 cost x ) (* 1 c_14 cost cost ) (* 1 c_15 r ) (* 1 c_16 r x ) (* 1 c_17 r r ) (* 1 c_18 x ) (* 1 c_19 x x ) ) 0) )))
(assert (forall ((r Real) (cost Real) (x Real) ) (=> (and (>= (+ (* (- 5) 1) (* (- 1) x ) ) 0) (>= (+ (* 1 cost ) (* (- 1) r ) ) 0) (>= (* 1 r ) 0) (>= (+ (* 1 1) (* (- 1) r ) ) 0) (>= (+ (* 1 cost ) (* (- 1) x ) ) 0) (>= (+ (* 1 cost ) (* 1 x ) ) 0) (>= (+ (* 5 1) (* 1 r ) (* (- 1) x ) ) 0) (>= (+ (* 5 1) (* 1 r ) (* 1 x ) ) 0) ) (>= (+ (* (- 1) 1) (* 1 c_0 ) (* 1 c_1 cost ) (* 1 c_2 cost r ) (* 1 c_3 cost x ) (* 1 c_4 cost cost ) (* 1 c_5 r ) (* 1 c_6 r x ) (* 1 c_7 r r ) (* (- 1) c_70 ) (* (- 1) c_71 cost ) (* (- 1) c_72 cost r ) (* (- 1) c_73 cost x ) (* (- 1) c_74 cost cost ) (* (- 1) c_75 r ) (* (- 1) c_76 r x ) (* (- 1) c_77 r r ) (* (- 1) c_78 x ) (* (- 1) c_79 x x ) (* 1 c_8 x ) (* 1 c_9 x x ) ) 0) )))
(assert (forall ((r Real) (cost Real) (x Real) ) (=> (and (>= (+ (* (- 5) 1) (* (- 1) x ) ) 0) (>= (+ (* 1 cost ) (* (- 1) r ) ) 0) (>= (* 1 r ) 0) (>= (+ (* 1 1) (* (- 1) r ) ) 0) (>= (+ (* 1 cost ) (* (- 1) x ) ) 0) (>= (+ (* 1 cost ) (* 1 x ) ) 0) (>= (+ (* 5 1) (* 1 r ) (* (- 1) x ) ) 0) (>= (+ (* 5 1) (* 1 r ) (* 1 x ) ) 0) ) (>= (+ (* 1 c_70 ) (* 1 c_71 cost ) (* 1 c_72 cost r ) (* 1 c_73 cost x ) (* 1 c_74 cost cost ) (* 1 c_75 r ) (* 1 c_76 r x ) (* 1 c_77 r r ) (* 1 c_78 x ) (* 1 c_79 x x ) ) 0) )))
(assert (forall ((r Real) (cost Real) (x Real) ) (=> (and (>= (+ (* (- 5) 1) (* 1 x ) ) 0) (>= (+ (* 1 cost ) (* (- 1) r ) ) 0) (>= (* 1 r ) 0) (>= (+ (* 1 1) (* (- 1) r ) ) 0) (>= (+ (* 1 cost ) (* (- 1) x ) ) 0) (>= (+ (* 1 cost ) (* 1 x ) ) 0) (>= (+ (* 5 1) (* 1 r ) (* (- 1) x ) ) 0) (>= (+ (* 5 1) (* 1 r ) (* 1 x ) ) 0) ) (>= (+ (* (- 1) 1) (* 1 c_0 ) (* 1 c_1 cost ) (* 1 c_2 cost r ) (* 1 c_3 cost x ) (* 1 c_4 cost cost ) (* 1 c_5 r ) (* 1 c_6 r x ) (* 1 c_7 r r ) (* (- 1) c_70 ) (* (- 1) c_71 cost ) (* (- 1) c_72 cost r ) (* (- 1) c_73 cost x ) (* (- 1) c_74 cost cost ) (* (- 1) c_75 r ) (* (- 1) c_76 r x ) (* (- 1) c_77 r r ) (* (- 1) c_78 x ) (* (- 1) c_79 x x ) (* 1 c_8 x ) (* 1 c_9 x x ) ) 0) )))
(assert (forall ((r Real) (cost Real) (x Real) ) (=> (and (>= (+ (* (- 5) 1) (* 1 x ) ) 0) (>= (+ (* 1 cost ) (* (- 1) r ) ) 0) (>= (* 1 r ) 0) (>= (+ (* 1 1) (* (- 1) r ) ) 0) (>= (+ (* 1 cost ) (* (- 1) x ) ) 0) (>= (+ (* 1 cost ) (* 1 x ) ) 0) (>= (+ (* 5 1) (* 1 r ) (* (- 1) x ) ) 0) (>= (+ (* 5 1) (* 1 r ) (* 1 x ) ) 0) ) (>= (+ (* 1 c_70 ) (* 1 c_71 cost ) (* 1 c_72 cost r ) (* 1 c_73 cost x ) (* 1 c_74 cost cost ) (* 1 c_75 r ) (* 1 c_76 r x ) (* 1 c_77 r r ) (* 1 c_78 x ) (* 1 c_79 x x ) ) 0) )))
(assert (forall ((r Real) (cost Real) (x Real) ) (=> (and (>= (+ (* 5 1) (* (- 1) x ) ) 0) (>= (+ (* 5 1) (* 1 x ) ) 0) (>= (+ (* 1 1) (* (- 1) r ) ) 0) (>= (+ (* 1 cost ) (* (- 1) r ) ) 0) (>= (* 1 r ) 0) (>= (+ (* 1 cost ) (* (- 1) x ) ) 0) (>= (+ (* 1 cost ) (* 1 x ) ) 0) ) (>= (+ (* 1 c_10 ) (* 1 c_11 cost ) (* 1 c_12 cost r ) (* 1 c_13 cost x ) (* 1 c_14 cost cost ) (* 1 c_15 r ) (* 1 c_16 r x ) (* 1 c_17 r r ) (* 1 c_18 x ) (* 1 c_19 x x ) (* (/ (- 3) 5) c_20 ) (* (/ (- 3) 5) c_21 cost ) (* (/ (- 3) 5) c_22 cost r ) (* (/ (- 3) 5) c_23 cost x ) (* (/ (- 3) 5) c_24 cost cost ) (* (/ (- 3) 5) c_25 r ) (* (/ (- 3) 5) c_26 r x ) (* (/ (- 3) 5) c_27 r r ) (* (/ (- 3) 5) c_28 x ) (* (/ (- 3) 5) c_29 x x ) (* (/ (- 2) 5) c_30 ) (* (/ (- 2) 5) c_31 cost ) (* (/ (- 2) 5) c_32 cost r ) (* (/ (- 2) 5) c_33 cost x ) (* (/ (- 2) 5) c_34 cost cost ) (* (/ (- 2) 5) c_35 r ) (* (/ (- 2) 5) c_36 r x ) (* (/ (- 2) 5) c_37 r r ) (* (/ (- 2) 5) c_38 x ) (* (/ (- 2) 5) c_39 x x ) ) 0) )))
(assert (forall ((r Real) (cost Real) (x Real) ) (=> (and (>= (+ (* 5 1) (* (- 1) x ) ) 0) (>= (+ (* 5 1) (* 1 x ) ) 0) (>= (+ (* 1 1) (* (- 1) r ) ) 0) (>= (+ (* 1 cost ) (* (- 1) r ) ) 0) (>= (* 1 r ) 0) (>= (+ (* 1 cost ) (* (- 1) x ) ) 0) (>= (+ (* 1 cost ) (* 1 x ) ) 0) ) (>= (+ (* (/ 3 5) c_20 ) (* (/ 3 5) c_21 cost ) (* (/ 3 5) c_22 cost r ) (* (/ 3 5) c_23 cost x ) (* (/ 3 5) c_24 cost cost ) (* (/ 3 5) c_25 r ) (* (/ 3 5) c_26 r x ) (* (/ 3 5) c_27 r r ) (* (/ 3 5) c_28 x ) (* (/ 3 5) c_29 x x ) (* (/ 2 5) c_30 ) (* (/ 2 5) c_31 cost ) (* (/ 2 5) c_32 cost r ) (* (/ 2 5) c_33 cost x ) (* (/ 2 5) c_34 cost cost ) (* (/ 2 5) c_35 r ) (* (/ 2 5) c_36 r x ) (* (/ 2 5) c_37 r r ) (* (/ 2 5) c_38 x ) (* (/ 2 5) c_39 x x ) ) 0) )))
(assert (forall ((r Real) (cost Real) (x Real) ) (=> (and (>= (+ (* 5 1) (* (- 1) x ) ) 0) (>= (+ (* 5 1) (* 1 x ) ) 0) (>= (+ (* 1 1) (* (- 1) r ) ) 0) (>= (+ (* 1 cost ) (* (- 1) r ) ) 0) (>= (* 1 r ) 0) (>= (+ (* 1 cost ) (* (- 1) x ) ) 0) (>= (+ (* 1 cost ) (* 1 x ) ) 0) ) (>= (+ (* (- 1) 1) (* 1 c_20 ) (* 1 c_21 cost ) (* 1 c_22 cost r ) (* 1 c_23 cost x ) (* 1 c_24 cost cost ) (* 1 c_25 r ) (* 1 c_26 r x ) (* 1 c_27 r r ) (* 1 c_28 x ) (* 1 c_29 x x ) (* (- 1) c_40 ) (* (- 1) c_41 cost ) (* (/ (- 1) 2) c_42 cost ) (* (- 1) c_43 cost x ) (* (- 1) c_44 cost cost ) (* (/ (- 1) 2) c_45 ) (* (/ (- 1) 2) c_46 x ) (* (/ (- 1) 3) c_47 ) (* (- 1) c_48 x ) (* (- 1) c_49 x x ) ) 0) )))
(assert (forall ((r Real) (cost Real) (x Real) ) (=> (and (>= (+ (* 5 1) (* (- 1) x ) ) 0) (>= (+ (* 5 1) (* 1 x ) ) 0) (>= (+ (* 1 1) (* (- 1) r ) ) 0) (>= (+ (* 1 cost ) (* (- 1) r ) ) 0) (>= (* 1 r ) 0) (>= (+ (* 1 cost ) (* (- 1) x ) ) 0) (>= (+ (* 1 cost ) (* 1 x ) ) 0) ) (>= (+ (* 1 c_40 ) (* 1 c_41 cost ) (* (/ 1 2) c_42 cost ) (* 1 c_43 cost x ) (* 1 c_44 cost cost ) (* (/ 1 2) c_45 ) (* (/ 1 2) c_46 x ) (* (/ 1 3) c_47 ) (* 1 c_48 x ) (* 1 c_49 x x ) ) 0) )))
(assert (forall ((r Real) (cost Real) (x Real) ) (=> (and (>= (+ (* 5 1) (* (- 1) x ) ) 0) (>= (+ (* 5 1) (* 1 x ) ) 0) (>= (+ (* 1 1) (* (- 1) r ) ) 0) (>= (+ (* 1 cost ) (* (- 1) r ) ) 0) (>= (* 1 r ) 0) (>= (+ (* 1 cost ) (* (- 1) x ) ) 0) (>= (+ (* 1 cost ) (* 1 x ) ) 0) ) (>= (+ (* (- 1) 1) (* 1 c_30 ) (* 1 c_31 cost ) (* 1 c_32 cost r ) (* 1 c_33 cost x ) (* 1 c_34 cost cost ) (* 1 c_35 r ) (* 1 c_36 r x ) (* 1 c_37 r r ) (* 1 c_38 x ) (* 1 c_39 x x ) (* (- 1) c_60 ) (* (- 1) c_61 cost ) (* (/ (- 1) 2) c_62 cost ) (* (- 1) c_63 cost x ) (* (- 1) c_64 cost cost ) (* (/ (- 1) 2) c_65 ) (* (/ (- 1) 2) c_66 x ) (* (/ (- 1) 3) c_67 ) (* (- 1) c_68 x ) (* (- 1) c_69 x x ) ) 0) )))
(assert (forall ((r Real) (cost Real) (x Real) ) (=> (and (>= (+ (* 5 1) (* (- 1) x ) ) 0) (>= (+ (* 5 1) (* 1 x ) ) 0) (>= (+ (* 1 1) (* (- 1) r ) ) 0) (>= (+ (* 1 cost ) (* (- 1) r ) ) 0) (>= (* 1 r ) 0) (>= (+ (* 1 cost ) (* (- 1) x ) ) 0) (>= (+ (* 1 cost ) (* 1 x ) ) 0) ) (>= (+ (* 1 c_60 ) (* 1 c_61 cost ) (* (/ 1 2) c_62 cost ) (* 1 c_63 cost x ) (* 1 c_64 cost cost ) (* (/ 1 2) c_65 ) (* (/ 1 2) c_66 x ) (* (/ 1 3) c_67 ) (* 1 c_68 x ) (* 1 c_69 x x ) ) 0) )))
(assert (forall ((r Real) (cost Real) (x Real) ) (=> (and (>= (+ (* 5 1) (* 1 x ) ) 0) (>= (* 1 r ) 0) (>= (+ (* 5 1) (* (- 1) x ) ) 0) (>= (* 1 cost ) 0) (>= (+ (* 1 1) (* (- 1) r ) ) 0) (>= (+ (* 1 1) (* 1 cost ) (* (- 1) r ) (* (- 1) x ) ) 0) (>= (+ (* 1 cost ) (* 1 r ) (* 1 x ) ) 0) ) (>= (+ (* (- 1) 1) (* 1 c_40 ) (* 1 c_41 cost ) (* 1 c_42 cost r ) (* 1 c_43 cost x ) (* 1 c_44 cost cost ) (* 1 c_45 r ) (* 1 c_46 r x ) (* 1 c_47 r r ) (* 1 c_48 x ) (* 1 c_49 x x ) (* (- 1) c_50 ) (* (- 1) c_51 ) (* (- 1) c_51 cost ) (* (- 1) c_52 cost r ) (* (- 1) c_52 r ) (* (- 1) c_53 cost r ) (* (- 1) c_53 cost x ) (* (- 1) c_53 r ) (* (- 1) c_53 x ) (* (- 1) c_54 ) (* (- 2) c_54 cost ) (* (- 1) c_54 cost cost ) (* (- 1) c_55 r ) (* (- 1) c_56 r x ) (* (- 1) c_56 r r ) (* (- 1) c_57 r r ) (* (- 1) c_58 r ) (* (- 1) c_58 x ) (* (- 2) c_59 r x ) (* (- 1) c_59 r r ) (* (- 1) c_59 x x ) ) 0) )))
(assert (forall ((r Real) (cost Real) (x Real) ) (=> (and (>= (+ (* 5 1) (* 1 x ) ) 0) (>= (* 1 r ) 0) (>= (+ (* 5 1) (* (- 1) x ) ) 0) (>= (* 1 cost ) 0) (>= (+ (* 1 1) (* (- 1) r ) ) 0) (>= (+ (* 1 1) (* 1 cost ) (* (- 1) r ) (* (- 1) x ) ) 0) (>= (+ (* 1 cost ) (* 1 r ) (* 1 x ) ) 0) ) (>= (+ (* 1 c_50 ) (* 1 c_51 cost ) (* 1 c_52 cost r ) (* 1 c_53 cost x ) (* 1 c_54 cost cost ) (* 1 c_55 r ) (* 1 c_56 r x ) (* 1 c_57 r r ) (* 1 c_58 x ) (* 1 c_59 x x ) ) 0) )))
(assert (forall ((r Real) (cost Real) (x Real) ) (=> (and (>= (+ (* 5 1) (* 1 r ) (* 1 x ) ) 0) (>= (* 1 r ) 0) (>= (+ (* 5 1) (* 1 r ) (* (- 1) x ) ) 0) (>= (+ (* 1 1) (* (- 1) r ) ) 0) (>= (+ (* (- 1) 1) (* 1 cost ) ) 0) (>= (+ (* 1 cost ) (* (- 1) x ) ) 0) (>= (+ (* 1 cost ) (* 1 x ) ) 0) ) (>= (+ (* (- 1) 1) (* (- 1) c_0 ) (* (- 1) c_1 cost ) (* (- 1) c_2 cost r ) (* (- 1) c_3 cost x ) (* (- 1) c_4 cost cost ) (* (- 1) c_5 r ) (* 1 c_50 ) (* 1 c_51 cost ) (* 1 c_52 cost r ) (* 1 c_53 cost x ) (* 1 c_54 cost cost ) (* 1 c_55 r ) (* 1 c_56 r x ) (* 1 c_57 r r ) (* 1 c_58 x ) (* 1 c_59 x x ) (* (- 1) c_6 r x ) (* (- 1) c_7 r r ) (* (- 1) c_8 x ) (* (- 1) c_9 x x ) ) 0) )))
(assert (forall ((r Real) (cost Real) (x Real) ) (=> (and (>= (+ (* 5 1) (* 1 r ) (* 1 x ) ) 0) (>= (* 1 r ) 0) (>= (+ (* 5 1) (* 1 r ) (* (- 1) x ) ) 0) (>= (+ (* 1 1) (* (- 1) r ) ) 0) (>= (+ (* (- 1) 1) (* 1 cost ) ) 0) (>= (+ (* 1 cost ) (* (- 1) x ) ) 0) (>= (+ (* 1 cost ) (* 1 x ) ) 0) ) (>= (+ (* 1 c_0 ) (* 1 c_1 cost ) (* 1 c_2 cost r ) (* 1 c_3 cost x ) (* 1 c_4 cost cost ) (* 1 c_5 r ) (* 1 c_6 r x ) (* 1 c_7 r r ) (* 1 c_8 x ) (* 1 c_9 x x ) ) 0) )))
(assert (forall ((r Real) (cost Real) (x Real) ) (=> (and (>= (+ (* 5 1) (* 1 x ) ) 0) (>= (* 1 r ) 0) (>= (+ (* 5 1) (* (- 1) x ) ) 0) (>= (* 1 cost ) 0) (>= (+ (* 1 1) (* (- 1) r ) ) 0) (>= (+ (* 1 1) (* 1 cost ) (* (- 1) r ) (* 1 x ) ) 0) (>= (+ (* 1 cost ) (* 1 r ) (* (- 1) x ) ) 0) ) (>= (+ (* (- 1) 1) (* (- 1) c_50 ) (* (- 1) c_51 ) (* (- 1) c_51 cost ) (* (- 1) c_52 cost r ) (* (- 1) c_52 r ) (* 1 c_53 cost r ) (* (- 1) c_53 cost x ) (* 1 c_53 r ) (* (- 1) c_53 x ) (* (- 1) c_54 ) (* (- 2) c_54 cost ) (* (- 1) c_54 cost cost ) (* (- 1) c_55 r ) (* (- 1) c_56 r x ) (* 1 c_56 r r ) (* (- 1) c_57 r r ) (* 1 c_58 r ) (* (- 1) c_58 x ) (* 2 c_59 r x ) (* (- 1) c_59 r r ) (* (- 1) c_59 x x ) (* 1 c_60 ) (* 1 c_61 cost ) (* 1 c_62 cost r ) (* 1 c_63 cost x ) (* 1 c_64 cost cost ) (* 1 c_65 r ) (* 1 c_66 r x ) (* 1 c_67 r r ) (* 1 c_68 x ) (* 1 c_69 x x ) ) 0) )))
(assert (forall ((r Real) (cost Real) (x Real) ) (=> (and (>= (+ (* 5 1) (* 1 x ) ) 0) (>= (* 1 r ) 0) (>= (+ (* 5 1) (* (- 1) x ) ) 0) (>= (* 1 cost ) 0) (>= (+ (* 1 1) (* (- 1) r ) ) 0) (>= (+ (* 1 1) (* 1 cost ) (* (- 1) r ) (* 1 x ) ) 0) (>= (+ (* 1 cost ) (* 1 r ) (* (- 1) x ) ) 0) ) (>= (+ (* 1 c_50 ) (* 1 c_51 cost ) (* 1 c_52 cost r ) (* 1 c_53 cost x ) (* 1 c_54 cost cost ) (* 1 c_55 r ) (* 1 c_56 r x ) (* 1 c_57 r r ) (* 1 c_58 x ) (* 1 c_59 x x ) ) 0) )))
(check-sat)
(get-model)

